(declare-fun Constructed_Argument_t () String)
(declare-fun CreateAsClass () Bool)
(declare-fun Constructed_Argument_elements_routes_0_t () String)
(declare-fun Constructed_Argument_elements_routes_0 () String)
(declare-fun Constructed_Argument_elements_mode_1_t () String)
(declare-fun Constructed_Argument_elements_mode_1 () String)
(declare-fun Constructed_Argument_elements_base_2_t () String)
(assert (= Constructed_Argument_t "object"))
(assert (not CreateAsClass))
(assert (= Constructed_Argument_elements_routes_0_t "string"))
(assert (= Constructed_Argument_elements_routes_0 ""))
(assert (= Constructed_Argument_elements_mode_1_t "string"))
(assert (= Constructed_Argument_elements_mode_1 ""))
(assert (not (= Constructed_Argument_elements_base_2_t "string")))
(assert (not (= Constructed_Argument_elements_base_2_t "number")))
(assert (not (= Constructed_Argument_elements_base_2_t "boolean")))
(assert (not (= Constructed_Argument_elements_base_2_t "object")))
(assert (not (= Constructed_Argument_elements_base_2_t "array_number")))
(assert (not (= Constructed_Argument_elements_base_2_t "array_string")))
(assert (not (= Constructed_Argument_elements_base_2_t "array_bool")))
(assert (= Constructed_Argument_elements_base_2_t "null"))
(check-sat)
